sing20210818.12
TTAA  68111 48698
99007 27650 32506 00097 26850 29004 92781 22450 25006
85512 19056 26510 70154 08011 28008 50586 05712 23004
40759 15914 16514 30969 29941 12012 25097 40150 06514
20245 53733 07025 15423 69946 06531 10657 78356 07031
88107 79956 09533
77999=
TTCC  68112 48698
70868 66969 29514 50072 65971 28023 30386 57573 09043
20645 53180 08566
88999
77191 09068 41501=
TTDD  6811/ 48698
11987 74958 22944 76157 33923 75957 44910 71760 55857 69361
66761 71767 77733 71766 88721 67969 99616 64971 11447 66170
22407 62372 33363 65570 44302 58173 55245 53776 66209 53979
77184 50183 88159 49986 99116 43994
21212 11934 07035 22879 03502 33877 33002 44871 27504 55861
26012 66825 26031 77723 26018 88655 34006 99638 26008 11603
27527 22546 29521 33524 27523 44447 29019 55421 27514 66399
22510 77382 22019 88348 19506 99338 10508 11293 09049 22191
09068 33189 09068 44161 08568 55138 09066 66116 11529=
